NAME : kroC100.27989.tour
COMMENT : Cost = 0_27989
COMMENT : Found by LKH [Keld Helsgaun] Thu Nov 16 16:24:23 2017
TYPE : TOUR
DIMENSION : 109
TOUR_SECTION
1
53
109
49
18
29
37
61
26
7
82
78
9
16
51
63
44
66
48
84
11
52
87
96
97
81
45
33
100
74
57
36
14
10
92
19
99
93
4
60
69
3
73
59
41
89
21
23
70
76
91
94
95
50
62
83
72
86
5
43
56
71
38
39
28
88
98
58
34
90
25
17
8
22
75
6
54
2
35
68
30
77
80
65
31
47
67
55
42
20
64
79
13
108
32
107
24
106
46
105
12
104
15
103
27
102
40
101
85
-1
EOF
